qbf_easy_train/easy_4279_SAT.qdimacs
p cnf 19 42
a 2 12 4 0
e 1 3 5 6 7 8 9 10 11 13 14 15 16 17 18 19 0
1 2 -3 0
-1 -2 -3 0
1 -2 3 0
-1 2 3 0
-5 3 0
-5 4 0
-3 -4 5 0
-7 -6 0
-7 -1 0
6 1 7 0
-8 7 0
-8 4 0
-7 -4 8 0
9 5 0
9 -8 0
-5 8 -9 0
11 10 0
11 -7 0
-10 7 -11 0
4 12 -13 0
-4 -12 -13 0
4 -12 13 0
-4 12 13 0
-11 -13 -14 0
11 13 -14 0
-11 13 14 0
11 -13 14 0
17 -15 0
17 16 0
15 -16 -17 0
18 14 0
18 -17 0
-14 17 -18 0
9 18 -19 0
-9 -18 -19 0
9 -18 19 0
-9 18 19 0
7 8 14 10 0
-17 -19 -18 16 0
-11 15 4 -5 0
-18 2 15 19 -9 0
19 0
