sat_easy_train/easy_4279_SAT.dimacs
p cnf 143 482
5 -3 0
5 -4 0
3 4 -5 0
7 5 0
7 6 0
-5 -6 -7 0
-8 -2 0
-8 -7 0
2 7 8 0
9 1 0
9 -8 0
-1 8 -9 0
-2 -11 -12 0
2 11 -12 0
-2 11 12 0
2 -11 12 0
-14 12 0
-14 13 0
-12 -13 14 0
15 -10 0
15 -14 0
10 14 -15 0
-16 -9 0
-16 -15 0
9 15 16 0
18 -16 0
18 17 0
16 -17 -18 0
17 19 -20 0
-17 -19 -20 0
17 -19 20 0
-17 19 20 0
-22 -11 0
-22 -21 0
11 21 22 0
-20 22 -23 0
20 -22 -23 0
-20 -22 23 0
20 22 23 0
24 -18 0
24 -23 0
18 23 -24 0
-21 -13 -26 0
21 13 -26 0
-21 13 26 0
21 -13 26 0
-27 -3 0
-27 26 0
3 -26 27 0
-28 25 0
-28 27 0
-25 -27 28 0
17 -22 -29 0
-17 22 -29 0
17 22 29 0
-17 -22 29 0
-30 -28 0
-30 -29 0
28 29 30 0
-31 6 0
-31 30 0
-6 -30 31 0
32 31 0
32 -11 0
-31 11 -32 0
-34 33 0
-34 29 0
-33 -29 34 0
36 35 0
36 35 0
-35 -36 0
-37 36 0
-37 -19 0
-36 19 37 0
38 -6 0
38 -22 0
6 22 -38 0
38 33 -39 0
-38 -33 -39 0
38 -33 39 0
-38 33 39 0
40 37 0
40 39 0
-37 -39 -40 0
-41 -40 0
-41 -30 0
40 30 41 0
-42 12 0
-42 -41 0
-12 41 42 0
34 42 -43 0
-34 -42 -43 0
34 -42 43 0
-34 42 43 0
-44 -32 0
-44 43 0
32 -43 44 0
-46 -22 0
-46 -45 0
22 45 46 0
47 -46 0
47 -29 0
46 29 -47 0
48 -44 0
48 47 0
44 -47 -48 0
49 24 0
49 -48 0
-24 48 -49 0
-50 38 0
-50 -22 0
-38 22 50 0
-51 -6 0
-51 38 0
6 -38 51 0
-51 -4 -52 0
51 4 -52 0
-51 4 52 0
51 -4 52 0
-50 52 -53 0
50 -52 -53 0
-50 -52 53 0
50 52 53 0
-54 -49 0
-54 -53 0
49 53 54 0
-55 -14 0
-55 -16 0
14 16 55 0
-18 -30 -56 0
18 30 -56 0
-18 30 56 0
18 -30 56 0
57 -11 0
57 -39 0
11 39 -57 0
57 -35 -58 0
-57 35 -58 0
57 35 58 0
-57 -35 58 0
-59 56 0
-59 -58 0
-56 58 59 0
60 -55 0
60 59 0
55 -59 -60 0
-51 29 -61 0
51 -29 -61 0
-51 -29 61 0
51 29 61 0
-62 -6 0
-62 -22 0
6 22 62 0
-63 61 0
-63 -62 0
-61 62 63 0
-64 -2 0
-64 19 0
2 -19 64 0
65 -6 0
65 -28 0
6 28 -65 0
-66 38 0
-66 -65 0
-38 65 66 0
67 66 0
67 -50 0
-66 50 -67 0
13 26 -68 0
-13 -26 -68 0
13 -26 68 0
-13 26 68 0
67 68 -69 0
-67 -68 -69 0
67 -68 69 0
-67 68 69 0
-70 -27 0
-70 -69 0
27 69 70 0
70 15 -71 0
-70 -15 -71 0
70 -15 71 0
-70 15 71 0
72 -64 0
72 71 0
64 -71 -72 0
73 -63 0
73 -72 0
63 72 -73 0
60 73 -74 0
-60 -73 -74 0
60 -73 74 0
-60 73 74 0
-75 -45 0
-75 -8 0
45 8 75 0
76 -35 0
76 17 0
35 -17 -76 0
77 75 0
77 76 0
-75 -76 -77 0
78 28 0
78 -4 0
-28 4 -78 0
-79 3 0
-79 21 0
-3 -21 79 0
-80 -78 0
-80 -79 0
78 79 80 0
81 77 0
81 -80 0
-77 80 -81 0
-82 74 0
-82 -81 0
-74 81 82 0
83 -46 0
83 -20 0
46 20 -83 0
-35 -83 -84 0
35 83 -84 0
-35 83 84 0
35 -83 84 0
-19 -16 -85 0
19 16 -85 0
-19 16 85 0
19 -16 85 0
-86 85 0
-86 14 0
-85 -14 86 0
87 -84 0
87 -86 0
84 86 -87 0
88 33 0
88 65 0
-33 -65 -88 0
-87 -88 -89 0
87 88 -89 0
-87 88 89 0
87 -88 89 0
90 38 0
90 37 0
-38 -37 -90 0
91 -65 0
91 85 0
65 -85 -91 0
92 16 0
92 91 0
-16 -91 -92 0
93 90 0
93 -92 0
-90 92 -93 0
94 89 0
94 93 0
-89 -93 -94 0
95 13 0
95 10 0
-13 -10 -95 0
-95 10 -96 0
95 -10 -96 0
-95 -10 96 0
95 10 96 0
97 34 0
97 -3 0
-34 3 -97 0
33 97 -98 0
-33 -97 -98 0
33 -97 98 0
-33 97 98 0
99 -16 0
99 -68 0
16 68 -99 0
98 -99 -100 0
-98 99 -100 0
98 99 100 0
-98 -99 100 0
-101 90 0
-101 29 0
-90 -29 101 0
-100 -101 -102 0
100 101 -102 0
-100 101 102 0
100 -101 102 0
-96 -102 -103 0
96 102 -103 0
-96 102 103 0
96 -102 103 0
-94 -103 -104 0
94 103 -104 0
-94 103 104 0
94 -103 104 0
-105 69 0
-105 -6 0
-69 6 105 0
-106 104 0
-106 105 0
-104 -105 106 0
107 -17 0
107 -25 0
17 25 -107 0
-107 45 -108 0
107 -45 -108 0
-107 -45 108 0
107 45 108 0
-109 -14 0
-109 -69 0
14 69 109 0
-110 -108 0
-110 109 0
108 -109 110 0
111 -29 0
111 51 0
29 -51 -111 0
112 -110 0
112 -111 0
110 111 -112 0
114 21 0
114 113 0
-21 -113 -114 0
38 12 -115 0
-38 -12 -115 0
38 -12 115 0
-38 12 115 0
-116 -107 0
-116 35 0
107 -35 116 0
117 -22 0
117 65 0
22 -65 -117 0
-118 116 0
-118 -117 0
-116 117 118 0
119 10 0
119 50 0
-10 -50 -119 0
-120 118 0
-120 119 0
-118 -119 120 0
121 -115 0
121 -120 0
115 120 -121 0
122 13 0
122 -107 0
-13 107 -122 0
-123 -121 0
-123 122 0
121 -122 123 0
114 123 -124 0
-114 -123 -124 0
114 -123 124 0
-114 123 124 0
-112 124 -125 0
112 -124 -125 0
-112 -124 125 0
112 124 125 0
-106 -125 -126 0
106 125 -126 0
-106 125 126 0
106 -125 126 0
-127 82 0
-127 126 0
-82 -126 127 0
128 34 0
128 -50 0
-34 50 -128 0
129 128 0
129 46 0
-128 -46 -129 0
130 129 0
130 -7 0
-129 7 -130 0
131 -50 0
131 7 0
50 -7 -131 0
-130 131 -132 0
130 -131 -132 0
-130 -131 132 0
130 131 132 0
-23 4 -133 0
23 -4 -133 0
-23 -4 133 0
23 4 133 0
-133 -28 -134 0
133 28 -134 0
-133 28 134 0
133 -28 134 0
-134 51 -135 0
134 -51 -135 0
-134 -51 135 0
134 51 135 0
136 132 0
136 135 0
-132 -135 -136 0
1 22 -137 0
-1 -22 -137 0
1 -22 137 0
-1 22 137 0
-137 -2 -138 0
137 2 -138 0
-137 2 138 0
137 -2 138 0
139 20 0
139 27 0
-20 -27 -139 0
140 -138 0
140 139 0
138 -139 -140 0
-141 136 0
-141 -140 0
-136 140 141 0
127 141 -142 0
-127 -141 -142 0
127 -141 142 0
-127 141 142 0
143 -54 0
143 142 0
54 -142 -143 0
-128 -64 -41 0
46 -48 68 -110 0
103 -120 0
-93 87 9 19 -26 0
128 73 106 0
133 110 -119 0
22 -90 0
47 17 92 0
-134 101 119 139 120 -22 0
-66 54 113 18 -19 0
-125 -25 -127 -48 1 0
77 -134 -91 0
64 92 -79 0
26 -2 51 -112 64 -30 0
-23 -31 30 -68 -98 44 0
6 139 115 -53 -49 0
3 -106 -19 -117 111 7 0
-46 118 122 -69 0
23 -33 118 143 47 0
-86 42 37 79 0
-82 20 -108 89 139 0
44 142 35 95 0
-71 -8 -21 0
-130 -113 0
105 127 -5 89 -130 0
112 97 30 -73 138 0
-84 -99 141 -111 130 0
-82 30 65 -76 113 0
-120 -59 142 -68 87 -32 0
-21 -76 -130 -113 -92 0
-101 -9 0
82 -74 -47 0
-142 42 -44 139 0
94 -57 -106 -74 -39 0
-83 -104 31 25 -126 0
-136 116 0
-80 -105 -88 -97 -47 0
9 -62 -51 136 8 106 0
83 -63 77 -78 0
-22 -139 28 25 15 -84 0
-96 -118 101 108 -42 0
82 11 -53 103 0
-136 129 105 0
142 12 87 -6 137 0
111 -84 41 108 -90 0
96 143 -15 110 135 -131 0
-57 138 -65 -31 -86 0
-54 67 -65 58 30 -87 0
107 81 0
-21 -59 -12 81 0
76 -141 60 -115 0
-21 71 8 14 0
-32 -34 -101 86 63 105 0
-81 105 50 -32 135 0
-7 -45 95 -83 0
113 -54 70 0
-48 2 98 0
3 -128 -55 46 0
138 93 -113 71 29 24 0
-135 84 20 0
-92 47 2 0
49 1 -124 -6 0
75 -124 116 -128 0
143 0
